letting n =  10
letting blocks =  [[1, 2], [1, 6], [1, 7], [1, 8], [2, 1], [2, 2], [2, 4], [2, 7], [2, 9], [3, 1], [3, 3], [3, 4], [3, 6], [3, 7], [3, 8], [4, 2], [4, 4], [4, 5], [4, 6], [5, 3], [5, 4], [5, 10], [6, 1], [6, 6], [6, 10], [7, 3], [7, 5], [7, 9], [8, 3], [8, 5], [8, 6], [8, 8], [8, 9], [8, 10], [9, 3], [9, 4], [9, 7], [9, 8], [10, 1], [10, 2], [10, 3], [10, 5], [10, 7], [10, 10]]
